
Gurobi 12.0.0 (linux64) logging started Sun Dec  8 00:11:38 2024

Set parameter LogFile to value "log/st1.log"
Set parameter MIPFocus to value 1
Set parameter TimeLimit to value 30
Gurobi Optimizer version 12.0.0 build v12.0.0rc1 (linux64 - "Ubuntu 20.04.6 LTS")

CPU model: AMD Ryzen 7 5700U with Radeon Graphics, instruction set [SSE2|AVX|AVX2]
Thread count: 8 physical cores, 16 logical processors, using up to 16 threads

Non-default parameters:
TimeLimit  30
MIPFocus  1

Optimize a model with 4365 rows, 28935 columns and 6435 nonzeros
Model fingerprint: 0x2f05e222
Model has 28035 simple general constraints
  4005 OR, 24030 INDICATOR
Variable types: 270 continuous, 28665 integer (28665 binary)
Coefficient statistics:
  Matrix range     [1e+00, 1e+02]
  Objective range  [2e+02, 2e+02]
  Bounds range     [1e+00, 3e+02]
  RHS range        [1e+00, 3e+02]
  GenCon coe range [1e+00, 1e+02]
Presolve added 24030 rows and 0 columns
Presolve removed 0 rows and 4017 columns
Presolve time: 1.61s
Presolved: 28395 rows, 24918 columns, 246954 nonzeros
Variable types: 270 continuous, 24648 integer (24648 binary)
Found heuristic solution: objective 15130.000000
Found heuristic solution: objective 14960.000000
Performing another presolve...
Presolve time: 0.40s
Deterministic concurrent LP optimizer: primal and dual simplex
Showing primal log only...

Concurrent spin time: 0.07s

Solved with dual simplex

Use crossover to convert LP symmetric solution to basic solution...

Root relaxation: objective 0.000000e+00, 22775 iterations, 0.90 seconds (0.67 work units)

    Nodes    |    Current Node    |     Objective Bounds      |     Work
 Expl Unexpl |  Obj  Depth IntInf | Incumbent    BestBd   Gap | It/Node Time

     0     0    0.00000    0  812 14960.0000    0.00000   100%     -    3s
H    0     0                    13260.000000    0.00000   100%     -    4s
H    0     0                    12580.000000    0.00000   100%     -    4s
H    0     0                    10880.000000    0.00000   100%     -    4s
H    0     0                    10200.000000    0.00000   100%     -    4s
     0     0    0.00000    0 1591 10200.0000    0.00000   100%     -    5s
     0     0    0.00000    0 1346 10200.0000    0.00000   100%     -    5s
H    0     0                    10030.000000    0.00000   100%     -    8s
H    0     0                    9520.0000000    0.00000   100%     -    8s
H    0     0                    9350.0000000    0.00000   100%     -    8s
     0     0    0.00000    0  900 9350.00000    0.00000   100%     -    8s
     0     0    0.00000    0  867 9350.00000    0.00000   100%     -    8s
H    0     0                    9010.0000000    0.00000   100%     -   12s
     0     0    0.00000    0  799 9010.00000    0.00000   100%     -   12s
     0     0    0.00000    0  753 9010.00000    0.00000   100%     -   12s
H    0     0                    8840.0000000    0.00000   100%     -   12s
H    0     0                    8670.0000000    0.00000   100%     -   12s
H    0     0                    8500.0000000    0.00000   100%     -   14s
     0     0    0.00000    0  770 8500.00000    0.00000   100%     -   14s
H    0     0                    8330.0000000    0.00000   100%     -   14s
H    0     0                    8160.0000000    0.00000   100%     -   14s
     0     0    0.00000    0  793 8160.00000    0.00000   100%     -   14s
     0     0    0.00000    0  745 8160.00000    0.00000   100%     -   16s
     0     2    0.00000    0  646 8160.00000    0.00000   100%     -   18s
    23    61    0.00000    5  816 8160.00000    0.00000   100%   555   20s
H  119   634                    7990.0000000    0.00000   100%   149   26s
   633  1070    0.00000   88  832 7990.00000    0.00000   100%  54.6   30s

Cutting planes:
  Gomory: 16
  Cover: 10
  Implied bound: 12
  MIR: 392
  GUB cover: 134
  Relax-and-lift: 12

Explored 1069 nodes (130577 simplex iterations) in 30.03 seconds (22.85 work units)
Thread count was 16 (of 16 available processors)

Solution count 10: 7990 8160 8330 ... 10030

Time limit reached
Best objective 7.990000000000e+03, best bound 0.000000000000e+00, gap 100.0000%

Gurobi 12.0.0 (linux64) logging started Sun Dec  8 00:17:35 2024

Set parameter LogFile to value "log/st1.log"
Set parameter MIPFocus to value 1
Set parameter TimeLimit to value 30
Gurobi Optimizer version 12.0.0 build v12.0.0rc1 (linux64 - "Ubuntu 20.04.6 LTS")

CPU model: AMD Ryzen 7 5700U with Radeon Graphics, instruction set [SSE2|AVX|AVX2]
Thread count: 8 physical cores, 16 logical processors, using up to 16 threads

Non-default parameters:
TimeLimit  30
MIPFocus  1

Optimize a model with 4365 rows, 28935 columns and 6435 nonzeros
Model fingerprint: 0x2f05e222
Model has 28035 simple general constraints
  4005 OR, 24030 INDICATOR
Variable types: 270 continuous, 28665 integer (28665 binary)
Coefficient statistics:
  Matrix range     [1e+00, 1e+02]
  Objective range  [2e+02, 2e+02]
  Bounds range     [1e+00, 3e+02]
  RHS range        [1e+00, 3e+02]
  GenCon coe range [1e+00, 1e+02]
Presolve added 24030 rows and 0 columns
Presolve removed 0 rows and 4017 columns
Presolve time: 1.52s
Presolved: 28395 rows, 24918 columns, 246954 nonzeros
Variable types: 270 continuous, 24648 integer (24648 binary)
Found heuristic solution: objective 15130.000000
Found heuristic solution: objective 14960.000000
Performing another presolve...
Presolve time: 0.58s
Deterministic concurrent LP optimizer: primal and dual simplex
Showing primal log only...

Concurrent spin time: 0.02s

Solved with dual simplex

Use crossover to convert LP symmetric solution to basic solution...

Root relaxation: objective 0.000000e+00, 22775 iterations, 0.87 seconds (0.67 work units)

    Nodes    |    Current Node    |     Objective Bounds      |     Work
 Expl Unexpl |  Obj  Depth IntInf | Incumbent    BestBd   Gap | It/Node Time

     0     0    0.00000    0  812 14960.0000    0.00000   100%     -    4s
H    0     0                    13260.000000    0.00000   100%     -    4s
H    0     0                    12580.000000    0.00000   100%     -    4s
H    0     0                    10880.000000    0.00000   100%     -    4s
H    0     0                    10200.000000    0.00000   100%     -    4s
     0     0    0.00000    0 1591 10200.0000    0.00000   100%     -    5s
     0     0    0.00000    0 1346 10200.0000    0.00000   100%     -    5s
H    0     0                    10030.000000    0.00000   100%     -    8s
H    0     0                    9520.0000000    0.00000   100%     -    8s
H    0     0                    9350.0000000    0.00000   100%     -    8s
     0     0    0.00000    0  900 9350.00000    0.00000   100%     -    8s
     0     0    0.00000    0  867 9350.00000    0.00000   100%     -    8s
H    0     0                    9010.0000000    0.00000   100%     -   11s
     0     0    0.00000    0  799 9010.00000    0.00000   100%     -   11s
     0     0    0.00000    0  753 9010.00000    0.00000   100%     -   12s
H    0     0                    8840.0000000    0.00000   100%     -   12s
H    0     0                    8670.0000000    0.00000   100%     -   12s
H    0     0                    8500.0000000    0.00000   100%     -   13s
     0     0    0.00000    0  770 8500.00000    0.00000   100%     -   13s
H    0     0                    8330.0000000    0.00000   100%     -   14s
H    0     0                    8160.0000000    0.00000   100%     -   14s
     0     0    0.00000    0  793 8160.00000    0.00000   100%     -   14s
     0     0    0.00000    0  745 8160.00000    0.00000   100%     -   15s
     0     2    0.00000    0  646 8160.00000    0.00000   100%     -   17s
    23    61    0.00000    5  816 8160.00000    0.00000   100%   555   20s
H  119   634                    7990.0000000    0.00000   100%   149   25s
  1069  1078    0.00000   89  828 7990.00000    0.00000   100%  36.6   30s

Cutting planes:
  Gomory: 16
  Cover: 10
  Implied bound: 12
  MIR: 392
  GUB cover: 134
  Relax-and-lift: 12

Explored 1077 nodes (130695 simplex iterations) in 30.03 seconds (23.32 work units)
Thread count was 16 (of 16 available processors)

Solution count 10: 7990 8160 8330 ... 10030

Time limit reached
Best objective 7.990000000000e+03, best bound 0.000000000000e+00, gap 100.0000%

Gurobi 12.0.0 (linux64) logging started Sun Dec  8 01:14:31 2024

Set parameter LogFile to value "log/st1.log"
Set parameter MIPFocus to value 1
Set parameter TimeLimit to value 10
Gurobi Optimizer version 12.0.0 build v12.0.0rc1 (linux64 - "Ubuntu 20.04.6 LTS")

CPU model: AMD Ryzen 7 5700U with Radeon Graphics, instruction set [SSE2|AVX|AVX2]
Thread count: 8 physical cores, 16 logical processors, using up to 16 threads

Non-default parameters:
TimeLimit  10
MIPFocus  1

Optimize a model with 4365 rows, 28935 columns and 6435 nonzeros
Model fingerprint: 0x2f05e222
Model has 28035 simple general constraints
  4005 OR, 24030 INDICATOR
Variable types: 270 continuous, 28665 integer (28665 binary)
Coefficient statistics:
  Matrix range     [1e+00, 1e+02]
  Objective range  [2e+02, 2e+02]
  Bounds range     [1e+00, 3e+02]
  RHS range        [1e+00, 3e+02]
  GenCon coe range [1e+00, 1e+02]
Presolve added 24030 rows and 0 columns
Presolve removed 0 rows and 4017 columns
Presolve time: 1.03s
Presolved: 28395 rows, 24918 columns, 246954 nonzeros
Variable types: 270 continuous, 24648 integer (24648 binary)
Found heuristic solution: objective 15130.000000
Found heuristic solution: objective 14960.000000
Performing another presolve...
Presolve time: 0.43s
Deterministic concurrent LP optimizer: primal and dual simplex
Showing primal log only...

Concurrent spin time: 0.06s

Solved with dual simplex

Use crossover to convert LP symmetric solution to basic solution...

Root relaxation: objective 0.000000e+00, 22775 iterations, 0.91 seconds (0.67 work units)

    Nodes    |    Current Node    |     Objective Bounds      |     Work
 Expl Unexpl |  Obj  Depth IntInf | Incumbent    BestBd   Gap | It/Node Time

     0     0    0.00000    0  812 14960.0000    0.00000   100%     -    3s
H    0     0                    13260.000000    0.00000   100%     -    3s
H    0     0                    12580.000000    0.00000   100%     -    3s
H    0     0                    10880.000000    0.00000   100%     -    3s
H    0     0                    10200.000000    0.00000   100%     -    3s
     0     0    0.00000    0 1591 10200.0000    0.00000   100%     -    4s
     0     0    0.00000    0 1346 10200.0000    0.00000   100%     -    5s
H    0     0                    10030.000000    0.00000   100%     -    8s
H    0     0                    9520.0000000    0.00000   100%     -    8s
H    0     0                    9350.0000000    0.00000   100%     -    8s
     0     0    0.00000    0  900 9350.00000    0.00000   100%     -    8s
     0     0    0.00000    0  867 9350.00000    0.00000   100%     -    8s
     0     0    0.00000    0 2054 9350.00000    0.00000   100%     -   10s

Cutting planes:
  Gomory: 19
  Cover: 204
  Implied bound: 17
  MIR: 1288
  StrongCG: 7
  GUB cover: 341
  RLT: 7
  Relax-and-lift: 14

Explored 1 nodes (59661 simplex iterations) in 10.02 seconds (7.08 work units)
Thread count was 16 (of 16 available processors)

Solution count 9: 9350 9520 10030 ... 15130

Time limit reached
Best objective 9.350000000000e+03, best bound 0.000000000000e+00, gap 100.0000%

Gurobi 12.0.0 (linux64) logging started Sun Dec  8 01:16:41 2024

Set parameter LogFile to value "log/st1.log"
Set parameter MIPFocus to value 1
Set parameter TimeLimit to value 10
Gurobi Optimizer version 12.0.0 build v12.0.0rc1 (linux64 - "Ubuntu 20.04.6 LTS")

CPU model: AMD Ryzen 7 5700U with Radeon Graphics, instruction set [SSE2|AVX|AVX2]
Thread count: 8 physical cores, 16 logical processors, using up to 16 threads

Non-default parameters:
TimeLimit  10
MIPFocus  1

Optimize a model with 4365 rows, 28935 columns and 6435 nonzeros
Model fingerprint: 0x2f05e222
Model has 28035 simple general constraints
  4005 OR, 24030 INDICATOR
Variable types: 270 continuous, 28665 integer (28665 binary)
Coefficient statistics:
  Matrix range     [1e+00, 1e+02]
  Objective range  [2e+02, 2e+02]
  Bounds range     [1e+00, 3e+02]
  RHS range        [1e+00, 3e+02]
  GenCon coe range [1e+00, 1e+02]
Presolve added 24030 rows and 0 columns
Presolve removed 0 rows and 4017 columns
Presolve time: 1.03s
Presolved: 28395 rows, 24918 columns, 246954 nonzeros
Variable types: 270 continuous, 24648 integer (24648 binary)
Found heuristic solution: objective 15130.000000
Found heuristic solution: objective 14960.000000
Performing another presolve...
Presolve time: 0.41s
Deterministic concurrent LP optimizer: primal and dual simplex
Showing primal log only...

Concurrent spin time: 0.04s

Solved with dual simplex

Use crossover to convert LP symmetric solution to basic solution...

Root relaxation: objective 0.000000e+00, 22775 iterations, 0.81 seconds (0.67 work units)

    Nodes    |    Current Node    |     Objective Bounds      |     Work
 Expl Unexpl |  Obj  Depth IntInf | Incumbent    BestBd   Gap | It/Node Time

     0     0    0.00000    0  812 14960.0000    0.00000   100%     -    3s
H    0     0                    13260.000000    0.00000   100%     -    3s
H    0     0                    12580.000000    0.00000   100%     -    3s
H    0     0                    10880.000000    0.00000   100%     -    3s
H    0     0                    10200.000000    0.00000   100%     -    3s
     0     0    0.00000    0 1591 10200.0000    0.00000   100%     -    4s
     0     0    0.00000    0 1346 10200.0000    0.00000   100%     -    5s
H    0     0                    10030.000000    0.00000   100%     -    8s
H    0     0                    9520.0000000    0.00000   100%     -    8s
H    0     0                    9350.0000000    0.00000   100%     -    8s
     0     0    0.00000    0  900 9350.00000    0.00000   100%     -    8s
     0     0    0.00000    0  867 9350.00000    0.00000   100%     -    8s
     0     0    0.00000    0 2054 9350.00000    0.00000   100%     -   10s

Cutting planes:
  Gomory: 19
  Cover: 204
  Implied bound: 17
  MIR: 1288
  StrongCG: 7
  GUB cover: 341
  RLT: 7
  Relax-and-lift: 14

Explored 1 nodes (59714 simplex iterations) in 10.02 seconds (7.10 work units)
Thread count was 16 (of 16 available processors)

Solution count 9: 9350 9520 10030 ... 15130

Time limit reached
Best objective 9.350000000000e+03, best bound 0.000000000000e+00, gap 100.0000%

Gurobi 12.0.0 (linux64) logging started Sun Dec  8 01:25:14 2024

Set parameter LogFile to value "log/st1.log"
Set parameter MIPFocus to value 1
Set parameter TimeLimit to value 10
Gurobi Optimizer version 12.0.0 build v12.0.0rc1 (linux64 - "Ubuntu 20.04.6 LTS")

CPU model: AMD Ryzen 7 5700U with Radeon Graphics, instruction set [SSE2|AVX|AVX2]
Thread count: 8 physical cores, 16 logical processors, using up to 16 threads

Non-default parameters:
TimeLimit  10
MIPFocus  1

Optimize a model with 4365 rows, 28935 columns and 6435 nonzeros
Model fingerprint: 0x2f05e222
Model has 28035 simple general constraints
  4005 OR, 24030 INDICATOR
Variable types: 270 continuous, 28665 integer (28665 binary)
Coefficient statistics:
  Matrix range     [1e+00, 1e+02]
  Objective range  [2e+02, 2e+02]
  Bounds range     [1e+00, 3e+02]
  RHS range        [1e+00, 3e+02]
  GenCon coe range [1e+00, 1e+02]
Presolve added 24030 rows and 0 columns
Presolve removed 0 rows and 4017 columns
Presolve time: 1.53s
Presolved: 28395 rows, 24918 columns, 246954 nonzeros
Variable types: 270 continuous, 24648 integer (24648 binary)
Found heuristic solution: objective 15130.000000
Found heuristic solution: objective 14960.000000
Performing another presolve...
Presolve time: 0.40s
Deterministic concurrent LP optimizer: primal and dual simplex
Showing primal log only...

Concurrent spin time: 0.00s

Solved with dual simplex

Use crossover to convert LP symmetric solution to basic solution...

Root relaxation: objective 0.000000e+00, 22775 iterations, 0.78 seconds (0.67 work units)

    Nodes    |    Current Node    |     Objective Bounds      |     Work
 Expl Unexpl |  Obj  Depth IntInf | Incumbent    BestBd   Gap | It/Node Time

     0     0    0.00000    0  812 14960.0000    0.00000   100%     -    3s
H    0     0                    13260.000000    0.00000   100%     -    3s
H    0     0                    12580.000000    0.00000   100%     -    3s
H    0     0                    10880.000000    0.00000   100%     -    3s
H    0     0                    10200.000000    0.00000   100%     -    3s
     0     0    0.00000    0 1591 10200.0000    0.00000   100%     -    5s
     0     0    0.00000    0 1346 10200.0000    0.00000   100%     -    5s
H    0     0                    10030.000000    0.00000   100%     -    8s
H    0     0                    9520.0000000    0.00000   100%     -    8s
H    0     0                    9350.0000000    0.00000   100%     -    8s
     0     0    0.00000    0  900 9350.00000    0.00000   100%     -    8s
     0     0    0.00000    0  867 9350.00000    0.00000   100%     -    8s
     0     0    0.00000    0 2054 9350.00000    0.00000   100%     -   10s

Cutting planes:
  Gomory: 19
  Cover: 204
  Implied bound: 17
  MIR: 1288
  StrongCG: 7
  GUB cover: 341
  RLT: 7
  Relax-and-lift: 14

Explored 1 nodes (58064 simplex iterations) in 10.02 seconds (6.77 work units)
Thread count was 16 (of 16 available processors)

Solution count 9: 9350 9520 10030 ... 15130

Time limit reached
Best objective 9.350000000000e+03, best bound 0.000000000000e+00, gap 100.0000%

Gurobi 12.0.0 (linux64) logging started Sun Dec  8 01:27:58 2024

Set parameter LogFile to value "log/st1.log"
Set parameter MIPFocus to value 1
Set parameter TimeLimit to value 30
Gurobi Optimizer version 12.0.0 build v12.0.0rc1 (linux64 - "Ubuntu 20.04.6 LTS")

CPU model: AMD Ryzen 7 5700U with Radeon Graphics, instruction set [SSE2|AVX|AVX2]
Thread count: 8 physical cores, 16 logical processors, using up to 16 threads

Non-default parameters:
TimeLimit  30
MIPFocus  1

Optimize a model with 4365 rows, 28935 columns and 6435 nonzeros
Model fingerprint: 0x2f05e222
Model has 28035 simple general constraints
  4005 OR, 24030 INDICATOR
Variable types: 270 continuous, 28665 integer (28665 binary)
Coefficient statistics:
  Matrix range     [1e+00, 1e+02]
  Objective range  [2e+02, 2e+02]
  Bounds range     [1e+00, 3e+02]
  RHS range        [1e+00, 3e+02]
  GenCon coe range [1e+00, 1e+02]
Presolve added 24030 rows and 0 columns
Presolve removed 0 rows and 4017 columns
Presolve time: 1.05s
Presolved: 28395 rows, 24918 columns, 246954 nonzeros
Variable types: 270 continuous, 24648 integer (24648 binary)
Found heuristic solution: objective 15130.000000
Found heuristic solution: objective 14960.000000
Performing another presolve...
Presolve time: 0.42s
Deterministic concurrent LP optimizer: primal and dual simplex
Showing primal log only...

Concurrent spin time: 0.01s

Solved with dual simplex

Use crossover to convert LP symmetric solution to basic solution...

Root relaxation: objective 0.000000e+00, 22775 iterations, 0.80 seconds (0.67 work units)

    Nodes    |    Current Node    |     Objective Bounds      |     Work
 Expl Unexpl |  Obj  Depth IntInf | Incumbent    BestBd   Gap | It/Node Time

     0     0    0.00000    0  812 14960.0000    0.00000   100%     -    3s
H    0     0                    13260.000000    0.00000   100%     -    3s
H    0     0                    12580.000000    0.00000   100%     -    3s
H    0     0                    10880.000000    0.00000   100%     -    3s
H    0     0                    10200.000000    0.00000   100%     -    3s
     0     0    0.00000    0 1591 10200.0000    0.00000   100%     -    4s
     0     0    0.00000    0 1346 10200.0000    0.00000   100%     -    5s
H    0     0                    10030.000000    0.00000   100%     -    8s
H    0     0                    9520.0000000    0.00000   100%     -    8s
H    0     0                    9350.0000000    0.00000   100%     -    8s
     0     0    0.00000    0  900 9350.00000    0.00000   100%     -    8s
     0     0    0.00000    0  867 9350.00000    0.00000   100%     -    8s
H    0     0                    9010.0000000    0.00000   100%     -   11s
     0     0    0.00000    0  799 9010.00000    0.00000   100%     -   11s
     0     0    0.00000    0  753 9010.00000    0.00000   100%     -   11s
H    0     0                    8840.0000000    0.00000   100%     -   12s
H    0     0                    8670.0000000    0.00000   100%     -   12s
H    0     0                    8500.0000000    0.00000   100%     -   13s
     0     0    0.00000    0  770 8500.00000    0.00000   100%     -   13s
H    0     0                    8330.0000000    0.00000   100%     -   14s
H    0     0                    8160.0000000    0.00000   100%     -   14s
     0     0    0.00000    0  793 8160.00000    0.00000   100%     -   14s
     0     0    0.00000    0  745 8160.00000    0.00000   100%     -   15s
     0     2    0.00000    0  646 8160.00000    0.00000   100%     -   17s
    23    61    0.00000    5  816 8160.00000    0.00000   100%   555   20s
H  119   634                    7990.0000000    0.00000   100%   149   25s
  1069  1078    0.00000   89  828 7990.00000    0.00000   100%  36.6   30s

Cutting planes:
  Gomory: 16
  Cover: 10
  Implied bound: 12
  MIR: 392
  GUB cover: 134
  Relax-and-lift: 12

Explored 1077 nodes (130695 simplex iterations) in 30.02 seconds (23.43 work units)
Thread count was 16 (of 16 available processors)

Solution count 10: 7990 8160 8330 ... 10030

Time limit reached
Best objective 7.990000000000e+03, best bound 0.000000000000e+00, gap 100.0000%

Gurobi 12.0.0 (linux64) logging started Sun Dec  8 03:06:38 2024

Set parameter LogFile to value "log/st1.log"
Set parameter MIPFocus to value 1
Set parameter TimeLimit to value 300
Gurobi Optimizer version 12.0.0 build v12.0.0rc1 (linux64 - "Ubuntu 20.04.6 LTS")

CPU model: AMD Ryzen 7 5700U with Radeon Graphics, instruction set [SSE2|AVX|AVX2]
Thread count: 8 physical cores, 16 logical processors, using up to 16 threads

Non-default parameters:
TimeLimit  300
MIPFocus  1

Optimize a model with 4365 rows, 28935 columns and 6435 nonzeros
Model fingerprint: 0x2f05e222
Model has 28035 simple general constraints
  4005 OR, 24030 INDICATOR
Variable types: 270 continuous, 28665 integer (28665 binary)
Coefficient statistics:
  Matrix range     [1e+00, 1e+02]
  Objective range  [2e+02, 2e+02]
  Bounds range     [1e+00, 3e+02]
  RHS range        [1e+00, 3e+02]
  GenCon coe range [1e+00, 1e+02]
Presolve added 24030 rows and 0 columns
Presolve removed 0 rows and 4017 columns
Presolve time: 0.95s
Presolved: 28395 rows, 24918 columns, 246954 nonzeros
Variable types: 270 continuous, 24648 integer (24648 binary)
Found heuristic solution: objective 15130.000000
Found heuristic solution: objective 14960.000000
Performing another presolve...
